<instance format="XCSP3" type="CSP">
<variables>
<array id="u0" size="[3]"> 0..4 </array>
<array id="id0" size="[3]"> 0..8 </array>
<array id="u1" size="[3]"> 0..4 </array>
<array id="id1" size="[3]"> 0..8 </array>
<array id="u2" size="[3]"> 0..4 </array>
<array id="id2" size="[3]"> 0..8 </array>
<array id="d2" size="[3]"> 0..4 </array>
<array id="l0" size="[3]"> 0..4 </array>
<array id="l1" size="[3]"> 0..4 </array>
<array id="l2" size="[3]"> 0..4 </array>
<array id="r2" size="[3]"> 0..4 </array>
</variables>
<constraints>
<allDifferent> id0[] id1[] id2[] </allDifferent>
<extension>
<list> id0[0] u0[0] l1[0] u1[0] l0[0] </list>
<supports> (0,0,0,1,1)(0,0,1,1,0)(0,1,0,0,1)(0,1,1,0,0)(1,0,0,1,2)(1,0,1,2,0)(1,1,2,0,0)(1,2,0,0,1)(2,0,0,2,1)(2,0,2,1,0)(2,1,0,0,2)(2,2,1,0,0)(3,0,0,2,2)(3,0,2,2,0)(3,2,0,0,2)(3,2,2,0,0)(4,0,1,3,2)(4,1,3,2,0)(4,2,0,1,3)(4,3,2,0,1)(5,0,1,4,1)(5,1,0,1,4)(5,1,4,1,0)(5,4,1,0,1)(6,0,2,3,1)(6,1,0,2,3)(6,2,3,1,0)(6,3,1,0,2)(7,0,2,4,2)(7,2,0,2,4)(7,2,4,2,0)(7,4,2,0,2)(8,3,3,4,4)(8,3,4,4,3)(8,4,3,3,4)(8,4,4,3,3) </supports>
</extension>
<extension>
<list> id0[1] u0[1] l2[0] u1[1] l1[0] </list>
<supports> (0,0,0,1,1)(0,0,1,1,0)(0,1,0,0,1)(0,1,1,0,0)(1,0,0,1,2)(1,0,1,2,0)(1,1,2,0,0)(1,2,0,0,1)(2,0,0,2,1)(2,0,2,1,0)(2,1,0,0,2)(2,2,1,0,0)(3,0,0,2,2)(3,0,2,2,0)(3,2,0,0,2)(3,2,2,0,0)(4,0,1,3,2)(4,1,3,2,0)(4,2,0,1,3)(4,3,2,0,1)(5,0,1,4,1)(5,1,0,1,4)(5,1,4,1,0)(5,4,1,0,1)(6,0,2,3,1)(6,1,0,2,3)(6,2,3,1,0)(6,3,1,0,2)(7,0,2,4,2)(7,2,0,2,4)(7,2,4,2,0)(7,4,2,0,2)(8,3,3,4,4)(8,3,4,4,3)(8,4,3,3,4)(8,4,4,3,3) </supports>
</extension>
<extension>
<list> id0[2] u0[2] r2[0] u1[2] l2[0] </list>
<supports> (0,0,0,1,1)(0,0,1,1,0)(0,1,0,0,1)(0,1,1,0,0)(1,0,0,1,2)(1,0,1,2,0)(1,1,2,0,0)(1,2,0,0,1)(2,0,0,2,1)(2,0,2,1,0)(2,1,0,0,2)(2,2,1,0,0)(3,0,0,2,2)(3,0,2,2,0)(3,2,0,0,2)(3,2,2,0,0)(4,0,1,3,2)(4,1,3,2,0)(4,2,0,1,3)(4,3,2,0,1)(5,0,1,4,1)(5,1,0,1,4)(5,1,4,1,0)(5,4,1,0,1)(6,0,2,3,1)(6,1,0,2,3)(6,2,3,1,0)(6,3,1,0,2)(7,0,2,4,2)(7,2,0,2,4)(7,2,4,2,0)(7,4,2,0,2)(8,3,3,4,4)(8,3,4,4,3)(8,4,3,3,4)(8,4,4,3,3) </supports>
</extension>
<extension>
<list> id1[0] u1[0] l1[1] u2[0] l0[1] </list>
<supports> (0,0,0,1,1)(0,0,1,1,0)(0,1,0,0,1)(0,1,1,0,0)(1,0,0,1,2)(1,0,1,2,0)(1,1,2,0,0)(1,2,0,0,1)(2,0,0,2,1)(2,0,2,1,0)(2,1,0,0,2)(2,2,1,0,0)(3,0,0,2,2)(3,0,2,2,0)(3,2,0,0,2)(3,2,2,0,0)(4,0,1,3,2)(4,1,3,2,0)(4,2,0,1,3)(4,3,2,0,1)(5,0,1,4,1)(5,1,0,1,4)(5,1,4,1,0)(5,4,1,0,1)(6,0,2,3,1)(6,1,0,2,3)(6,2,3,1,0)(6,3,1,0,2)(7,0,2,4,2)(7,2,0,2,4)(7,2,4,2,0)(7,4,2,0,2)(8,3,3,4,4)(8,3,4,4,3)(8,4,3,3,4)(8,4,4,3,3) </supports>
</extension>
<extension>
<list> id1[1] u1[1] l2[1] u2[1] l1[1] </list>
<supports> (0,0,0,1,1)(0,0,1,1,0)(0,1,0,0,1)(0,1,1,0,0)(1,0,0,1,2)(1,0,1,2,0)(1,1,2,0,0)(1,2,0,0,1)(2,0,0,2,1)(2,0,2,1,0)(2,1,0,0,2)(2,2,1,0,0)(3,0,0,2,2)(3,0,2,2,0)(3,2,0,0,2)(3,2,2,0,0)(4,0,1,3,2)(4,1,3,2,0)(4,2,0,1,3)(4,3,2,0,1)(5,0,1,4,1)(5,1,0,1,4)(5,1,4,1,0)(5,4,1,0,1)(6,0,2,3,1)(6,1,0,2,3)(6,2,3,1,0)(6,3,1,0,2)(7,0,2,4,2)(7,2,0,2,4)(7,2,4,2,0)(7,4,2,0,2)(8,3,3,4,4)(8,3,4,4,3)(8,4,3,3,4)(8,4,4,3,3) </supports>
</extension>
<extension>
<list> id1[2] u1[2] r2[1] u2[2] l2[1] </list>
<supports> (0,0,0,1,1)(0,0,1,1,0)(0,1,0,0,1)(0,1,1,0,0)(1,0,0,1,2)(1,0,1,2,0)(1,1,2,0,0)(1,2,0,0,1)(2,0,0,2,1)(2,0,2,1,0)(2,1,0,0,2)(2,2,1,0,0)(3,0,0,2,2)(3,0,2,2,0)(3,2,0,0,2)(3,2,2,0,0)(4,0,1,3,2)(4,1,3,2,0)(4,2,0,1,3)(4,3,2,0,1)(5,0,1,4,1)(5,1,0,1,4)(5,1,4,1,0)(5,4,1,0,1)(6,0,2,3,1)(6,1,0,2,3)(6,2,3,1,0)(6,3,1,0,2)(7,0,2,4,2)(7,2,0,2,4)(7,2,4,2,0)(7,4,2,0,2)(8,3,3,4,4)(8,3,4,4,3)(8,4,3,3,4)(8,4,4,3,3) </supports>
</extension>
<extension>
<list> id2[0] u2[0] l1[2] d2[0] l0[2] </list>
<supports> (0,0,0,1,1)(0,0,1,1,0)(0,1,0,0,1)(0,1,1,0,0)(1,0,0,1,2)(1,0,1,2,0)(1,1,2,0,0)(1,2,0,0,1)(2,0,0,2,1)(2,0,2,1,0)(2,1,0,0,2)(2,2,1,0,0)(3,0,0,2,2)(3,0,2,2,0)(3,2,0,0,2)(3,2,2,0,0)(4,0,1,3,2)(4,1,3,2,0)(4,2,0,1,3)(4,3,2,0,1)(5,0,1,4,1)(5,1,0,1,4)(5,1,4,1,0)(5,4,1,0,1)(6,0,2,3,1)(6,1,0,2,3)(6,2,3,1,0)(6,3,1,0,2)(7,0,2,4,2)(7,2,0,2,4)(7,2,4,2,0)(7,4,2,0,2)(8,3,3,4,4)(8,3,4,4,3)(8,4,3,3,4)(8,4,4,3,3) </supports>
</extension>
<extension>
<list> id2[1] u2[1] l2[2] d2[1] l1[2] </list>
<supports> (0,0,0,1,1)(0,0,1,1,0)(0,1,0,0,1)(0,1,1,0,0)(1,0,0,1,2)(1,0,1,2,0)(1,1,2,0,0)(1,2,0,0,1)(2,0,0,2,1)(2,0,2,1,0)(2,1,0,0,2)(2,2,1,0,0)(3,0,0,2,2)(3,0,2,2,0)(3,2,0,0,2)(3,2,2,0,0)(4,0,1,3,2)(4,1,3,2,0)(4,2,0,1,3)(4,3,2,0,1)(5,0,1,4,1)(5,1,0,1,4)(5,1,4,1,0)(5,4,1,0,1)(6,0,2,3,1)(6,1,0,2,3)(6,2,3,1,0)(6,3,1,0,2)(7,0,2,4,2)(7,2,0,2,4)(7,2,4,2,0)(7,4,2,0,2)(8,3,3,4,4)(8,3,4,4,3)(8,4,3,3,4)(8,4,4,3,3) </supports>
</extension>
<extension>
<list> id2[2] u2[2] r2[2] d2[2] l2[2] </list>
<supports> (0,0,0,1,1)(0,0,1,1,0)(0,1,0,0,1)(0,1,1,0,0)(1,0,0,1,2)(1,0,1,2,0)(1,1,2,0,0)(1,2,0,0,1)(2,0,0,2,1)(2,0,2,1,0)(2,1,0,0,2)(2,2,1,0,0)(3,0,0,2,2)(3,0,2,2,0)(3,2,0,0,2)(3,2,2,0,0)(4,0,1,3,2)(4,1,3,2,0)(4,2,0,1,3)(4,3,2,0,1)(5,0,1,4,1)(5,1,0,1,4)(5,1,4,1,0)(5,4,1,0,1)(6,0,2,3,1)(6,1,0,2,3)(6,2,3,1,0)(6,3,1,0,2)(7,0,2,4,2)(7,2,0,2,4)(7,2,4,2,0)(7,4,2,0,2)(8,3,3,4,4)(8,3,4,4,3)(8,4,3,3,4)(8,4,4,3,3) </supports>
</extension>
<intension> eq(l0[0],0) </intension>
<intension> eq(r2[0],0) </intension>
<intension> eq(l0[1],0) </intension>
<intension> eq(r2[1],0) </intension>
<intension> eq(l0[2],0) </intension>
<intension> eq(r2[2],0) </intension>
<intension> eq(u0[0],0) </intension>
<intension> eq(d2[0],0) </intension>
<intension> eq(u0[1],0) </intension>
<intension> eq(d2[1],0) </intension>
<intension> eq(u0[2],0) </intension>
<intension> eq(d2[2],0) </intension>
</constraints>
</instance>
